Route 1: 0 81 94 78 33 15 76 19 26 0
Route 2: 0 59 93 92 49 90 63 47 0
Route 3: 0 75 74 85 16 22 29 30 71 64 12 2 0
Route 4: 0 44 46 45 11 43 31 0
Route 5: 0 89 66 86 13 62 88 10 20 54 24 41 0
Route 6: 0 100 57 65 38 42 97 5 84 0
Route 7: 0 1 95 51 28 36 82 7 0
Route 8: 0 40 25 69 48 27 50 61 99 58 70 0
Route 9: 0 87 96 83 55 35 3 21 0
Route 10: 0 91 32 68 79 77 72 34 14 80 0
Route 11: 0 67 9 18 53 56 4 0
Route 12: 0 39 17 98 52 60 37 8 0
Route 13: 0 73 23 6 0
